p edge 37 161
v 1 576
v 2 49
v 3 546
v 4 860
v 5 956
v 6 88
v 7 768
v 8 434
v 9 745
v 10 95
v 11 73
v 12 767
v 13 50
v 14 405
v 15 455
v 16 56
v 17 345
v 18 5
v 19 423
v 20 58
v 21 908
v 22 51
v 23 78
v 24 258
v 25 78
v 26 539
v 27 63
v 28 324
v 29 545
v 30 657
v 31 546
v 32 58
v 33 323
v 34 80
v 35 700
v 36 96
v 37 657
e 1 2
e 1 3
e 1 4
e 1 5
e 1 6
e 1 7
e 1 22
e 1 27
e 1 32
e 2 3
e 2 4
e 2 5
e 2 6
e 2 12
e 2 17
e 2 28
e 2 33
e 3 4
e 3 5
e 3 6
e 3 8
e 3 13
e 3 18
e 3 23
e 3 29
e 3 34
e 4 5
e 4 6
e 4 9
e 4 14
e 4 19
e 4 24
e 5 6
e 5 15
e 5 26
e 5 31
e 5 36
e 6 11
e 6 16
e 6 21
e 6 37
e 7 8
e 7 9
e 7 10
e 7 11
e 7 22
e 7 27
e 7 32
e 8 9
e 8 10
e 8 11
e 8 13
e 8 18
e 8 23
e 8 29
e 8 34
e 9 10
e 9 11
e 9 14
e 9 19
e 9 24
e 10 11
e 10 20
e 10 25
e 10 30
e 10 35
e 11 16
e 11 21
e 11 37
e 12 13
e 12 14
e 12 15
e 12 16
e 12 17
e 12 28
e 12 33
e 13 14
e 13 15
e 13 16
e 13 18
e 13 23
e 13 29
e 13 34
e 14 15
e 14 16
e 14 19
e 14 24
e 15 16
e 15 26
e 15 31
e 15 36
e 16 21
e 16 37
e 17 18
e 17 19
e 17 20
e 17 21
e 17 28
e 17 33
e 18 19
e 18 20
e 18 21
e 18 23
e 18 29
e 18 34
e 19 20
e 19 21
e 19 24
e 20 21
e 20 25
e 20 30
e 20 35
e 21 37
e 22 23
e 22 24
e 22 25
e 22 26
e 22 27
e 22 32
e 23 24
e 23 25
e 23 26
e 23 29
e 23 34
e 24 25
e 24 26
e 25 26
e 25 30
e 25 35
e 26 31
e 26 36
e 27 28
e 27 29
e 27 30
e 27 31
e 27 32
e 28 29
e 28 30
e 28 31
e 28 33
e 29 30
e 29 31
e 29 34
e 30 31
e 30 35
e 31 36
e 32 33
e 32 34
e 32 35
e 32 36
e 32 37
e 33 34
e 33 35
e 33 36
e 33 37
e 34 35
e 34 36
e 34 37
e 35 36
e 35 37
e 36 37
